qbf_easy_train/easy_4537_UNSAT.qdimacs
p cnf 23 53
a 8 2 11 0
e 1 3 4 5 6 7 9 10 12 13 14 15 16 17 18 19 20 21 22 23 0
2 -3 -4 0
-2 3 -4 0
2 3 4 0
-2 -3 4 0
-5 1 0
-5 -4 0
-1 4 5 0
-8 -6 0
-8 -7 0
6 7 8 0
10 -9 0
10 -1 0
9 1 -10 0
-11 -9 0
-11 -10 0
9 10 11 0
-12 2 0
-12 3 0
-2 -3 12 0
-13 -11 0
-13 -12 0
11 12 13 0
-8 13 -14 0
8 -13 -14 0
-8 -13 14 0
8 13 14 0
-16 9 0
-16 15 0
-9 -15 16 0
17 -15 0
17 -3 0
15 3 -17 0
-19 18 0
-19 -4 0
-18 4 19 0
20 17 0
20 19 0
-17 -19 -20 0
21 16 0
21 -20 0
-16 20 -21 0
-22 -14 0
-22 -21 0
14 21 22 0
23 -5 0
23 -22 0
5 22 -23 0
4 -1 -10 -5 0
15 -14 -11 0
-21 -4 0
-8 -16 3 6 5 -21 22 0
23 -6 20 -5 -16 3 -4 0
23 0
