sat_easy_train/easy_4537_UNSAT.dimacs
p cnf 120 392
-4 2 0
-4 3 0
-2 -3 4 0
-1 4 -5 0
1 -4 -5 0
-1 -4 5 0
1 4 5 0
7 -6 0
7 3 0
6 -3 -7 0
7 8 0
-7 8 0
3 10 -11 0
-3 -10 -11 0
3 -10 11 0
-3 10 11 0
-12 -9 0
-12 11 0
9 -11 12 0
13 -8 0
13 12 0
8 -12 -13 0
14 -5 0
14 -13 0
5 13 -14 0
-17 -15 0
-17 -16 0
15 16 17 0
-19 18 0
-19 -16 0
-18 16 19 0
-21 19 0
-21 20 0
-19 -20 21 0
-22 -21 0
-22 -12 0
21 12 22 0
22 -12 -23 0
-22 12 -23 0
22 12 23 0
-22 -12 23 0
-24 17 0
-24 23 0
-17 -23 24 0
25 10 0
25 -7 0
-10 7 -25 0
25 -4 -26 0
-25 4 -26 0
25 4 26 0
-25 -4 26 0
27 -17 0
27 -2 0
17 2 -27 0
-28 -27 0
-28 -25 0
27 25 28 0
29 17 0
29 -28 0
-17 28 -29 0
-30 8 0
-30 -29 0
-8 29 30 0
31 26 0
31 -30 0
-26 30 -31 0
32 23 0
32 -21 0
-23 21 -32 0
-18 -32 -33 0
18 32 -33 0
-18 32 33 0
18 -32 33 0
-33 -17 -34 0
33 17 -34 0
-33 17 34 0
33 -17 34 0
6 -9 -36 0
-6 9 -36 0
6 9 36 0
-6 -9 36 0
-37 -35 0
-37 36 0
35 -36 37 0
38 34 0
38 37 0
-34 -37 -38 0
-38 39 -40 0
38 -39 -40 0
-38 -39 40 0
38 39 40 0
-41 -27 0
-41 -20 0
27 20 41 0
-42 8 0
-42 41 0
-8 -41 42 0
43 -40 0
43 42 0
40 -42 -43 0
-44 -31 0
-44 43 0
31 -43 44 0
-24 44 -45 0
24 -44 -45 0
-24 -44 45 0
24 44 45 0
-46 -14 0
-46 45 0
14 -45 46 0
30 -36 -47 0
-30 36 -47 0
30 36 47 0
-30 -36 47 0
47 2 -48 0
-47 -2 -48 0
47 -2 48 0
-47 2 48 0
49 46 0
49 48 0
-46 -48 -49 0
-50 21 0
-50 18 0
-21 -18 50 0
51 -50 0
51 -2 0
50 2 -51 0
51 -30 -52 0
-51 30 -52 0
51 30 52 0
-51 -30 52 0
-53 41 0
-53 52 0
-41 -52 53 0
39 -21 -54 0
-39 21 -54 0
39 21 54 0
-39 -21 54 0
55 19 0
55 -8 0
-19 8 -55 0
-54 55 -56 0
54 -55 -56 0
-54 -55 56 0
54 55 56 0
57 -25 0
57 56 0
25 -56 -57 0
-55 58 -59 0
55 -58 -59 0
-55 -58 59 0
55 58 59 0
-60 57 0
-60 59 0
-57 -59 60 0
61 -53 0
61 60 0
53 -60 -61 0
-10 54 -62 0
10 -54 -62 0
-10 -54 62 0
10 54 62 0
63 -10 0
63 62 0
10 -62 -63 0
-64 -28 0
-64 28 0
-65 -63 0
-65 64 0
63 -64 65 0
66 -58 0
66 10 0
58 -10 -66 0
41 66 -67 0
-41 -66 -67 0
41 -66 67 0
-41 66 67 0
68 -21 0
68 67 0
21 -67 -68 0
-69 -10 0
-69 67 0
10 -67 69 0
70 -16 0
70 -19 0
16 19 -70 0
-71 69 0
-71 70 0
-69 -70 71 0
-72 -47 0
-72 -71 0
47 71 72 0
-12 55 -73 0
12 -55 -73 0
-12 -55 73 0
12 55 73 0
74 73 0
74 18 0
-73 -18 -74 0
-75 -4 0
-75 71 0
4 -71 75 0
-22 -27 -76 0
22 27 -76 0
-22 27 76 0
22 -27 76 0
77 75 0
77 -76 0
-75 76 -77 0
78 74 0
78 -77 0
-74 77 -78 0
79 -72 0
79 -78 0
72 78 -79 0
80 -68 0
80 79 0
68 -79 -80 0
-81 65 0
-81 80 0
-65 -80 81 0
82 -61 0
82 81 0
61 -81 -82 0
4 -27 -83 0
-4 27 -83 0
4 27 83 0
-4 -27 83 0
84 71 0
84 8 0
-71 -8 -84 0
-85 83 0
-85 84 0
-83 -84 85 0
86 25 0
86 69 0
-25 -69 -86 0
87 28 0
87 21 0
-28 -21 -87 0
86 87 -88 0
-86 -87 -88 0
86 -87 88 0
-86 87 88 0
89 36 0
89 69 0
-36 -69 -89 0
-90 -3 0
-90 89 0
3 -89 90 0
-92 91 0
-92 -67 0
-91 67 92 0
93 7 -94 0
-93 -7 -94 0
93 -7 94 0
-93 7 94 0
95 -41 0
95 -94 0
41 94 -95 0
27 -16 -96 0
-27 16 -96 0
27 16 96 0
-27 -16 96 0
-97 -95 0
-97 96 0
95 -96 97 0
-98 -3 0
-98 -39 0
3 39 98 0
-99 -97 0
-99 -98 0
97 98 99 0
-101 36 0
-101 100 0
-36 -100 101 0
-99 -101 -102 0
99 101 -102 0
-99 101 102 0
99 -101 102 0
-92 102 -103 0
92 -102 -103 0
-92 -102 103 0
92 102 103 0
-90 -103 -104 0
90 103 -104 0
-90 103 104 0
90 -103 104 0
-20 54 -105 0
20 -54 -105 0
-20 -54 105 0
20 54 105 0
106 105 0
106 67 0
-105 -67 -106 0
107 -106 0
107 -22 0
106 22 -107 0
-108 -1 0
-108 -107 0
1 107 108 0
109 -6 0
109 -108 0
6 108 -109 0
110 32 0
110 69 0
-32 -69 -110 0
111 -9 0
111 110 0
9 -110 -111 0
-112 10 0
-112 26 0
-10 -26 112 0
112 -110 -113 0
-112 110 -113 0
112 110 113 0
-112 -110 113 0
-114 111 0
-114 -113 0
-111 113 114 0
-109 114 -115 0
109 -114 -115 0
-109 -114 115 0
109 114 115 0
116 104 0
116 115 0
-104 -115 -116 0
117 88 0
117 116 0
-88 -116 -117 0
85 117 -118 0
-85 -117 -118 0
85 -117 118 0
-85 117 118 0
119 82 0
119 118 0
-82 -118 -119 0
120 49 0
120 119 0
-49 -119 -120 0
-9 111 0
-87 6 10 79 0
102 -22 8 -19 -101 113 0
63 66 -32 -60 -112 31 0
-59 -7 -4 106 0
-44 -22 49 26 119 0
-105 -37 -24 43 6 -1 0
4 -96 -17 0
-11 26 0
-85 6 5 -65 -50 -36 0
-117 50 0
-41 -72 -22 -93 0
33 108 15 0
-7 -103 -49 0
78 52 -72 -37 -3 0
51 -31 -50 108 -2 0
-54 -56 101 -29 0
114 93 0
-68 32 0
21 81 -35 0
52 -92 49 -26 0
111 -41 0
78 53 43 34 64 -8 0
-41 68 -8 -118 0
93 -37 84 85 -33 0
119 -118 -94 0
-78 36 0
106 -98 -52 87 -73 0
-48 3 -39 -83 0
118 101 50 -65 44 -95 0
-108 -112 42 99 -97 -51 0
-110 -73 68 0
119 -58 0
115 113 -118 -43 53 0
95 77 9 69 -104 0
48 -81 -64 0
-53 -108 4 101 6 0
-57 120 0
-73 -43 -24 0
105 24 26 94 -1 -85 0
-8 -94 -105 97 41 87 0
24 -113 0
-111 -9 -97 0
103 -27 0
13 73 -57 -20 -30 -22 0
97 118 -17 91 -71 -47 0
-31 66 68 -75 0
-114 -41 -23 -106 2 -63 0
-94 65 50 0
61 17 -79 -95 81 -76 0
33 97 -74 108 0
120 0
